105931
53,70,65,35,25,79,61,69,13,75,66,19,8,76,16,57,73,31,81,39,10,32,15,26,6,55,50,71,80,59,46,42,56,33,48,2,11,22,54,41,5,60,14,24,68,77,40,51,38,62,82,52,3,49,64,67,58,7,27,78,34,29,1,37,74,43,21,4,18,30,23,47,20,17,36,12,0,9,28,63,72,44,45
